; ADD SWAP1 SWAP2 SWAP1 POP => MUL POP SWAP1
(set-option :produce-proofs true)
; 
(set-info :status unknown)
(declare-fun storage_t ((_ BitVec 256) (_ BitVec 256) (_ BitVec 256) (_ BitVec 256) Int (_ BitVec 256)) (_ BitVec 256))
(declare-fun storage_s ((_ BitVec 256) (_ BitVec 256) (_ BitVec 256) (_ BitVec 256) Int (_ BitVec 256)) (_ BitVec 256))
(declare-fun exc_halt_t (Int) Bool)
(declare-fun exc_halt_s (Int) Bool)
(declare-fun stack_t ((_ BitVec 256) (_ BitVec 256) (_ BitVec 256) (_ BitVec 256) Int (_ BitVec 6)) (_ BitVec 256))
(declare-fun stack_s ((_ BitVec 256) (_ BitVec 256) (_ BitVec 256) (_ BitVec 256) Int (_ BitVec 6)) (_ BitVec 256))
(declare-fun sc_t (Int) (_ BitVec 6))
(declare-fun sc_s (Int) (_ BitVec 6))
(declare-fun used_gas_t ((_ BitVec 256) (_ BitVec 256) (_ BitVec 256) (_ BitVec 256) Int) Int)
(declare-fun used_gas_s ((_ BitVec 256) (_ BitVec 256) (_ BitVec 256) (_ BitVec 256) Int) Int)
(assert
 (exists ((x_0 (_ BitVec 256)) (x_1 (_ BitVec 256)) (x_2 (_ BitVec 256)) (x_3 (_ BitVec 256)) )(let (($x10167 (forall ((w (_ BitVec 256)) )(let ((?x2002 (storage_t x_0 x_1 x_2 x_3 3 w)))
 (let ((?x11072 (storage_s x_0 x_1 x_2 x_3 5 w)))
 (= ?x11072 ?x2002))))
 ))
 (let (($x3614 (exc_halt_t 3)))
 (let (($x11317 (exc_halt_s 5)))
 (let (($x3494 (= $x11317 $x3614)))
 (let (($x6363 (forall ((n (_ BitVec 6)) )(let ((?x9142 (stack_t x_0 x_1 x_2 x_3 3 n)))
 (let ((?x6221 (stack_s x_0 x_1 x_2 x_3 5 n)))
 (let (($x11180 (= ?x6221 ?x9142)))
 (or (bvsle (sc_t 3) n) $x11180)))))
 ))
 (let ((?x11304 (sc_t 3)))
 (let ((?x4319 (sc_s 5)))
 (let (($x1839 (= ?x4319 ?x11304)))
 (let ((?x8331 (used_gas_t x_0 x_1 x_2 x_3 0)))
 (let ((?x1929 (used_gas_s x_0 x_1 x_2 x_3 0)))
 (let (($x3395 (= ?x1929 ?x8331)))
 (let (($x9422 (forall ((w (_ BitVec 256)) )(let ((?x3880 (storage_t x_0 x_1 x_2 x_3 0 w)))
 (let ((?x5871 (storage_s x_0 x_1 x_2 x_3 0 w)))
 (= ?x5871 ?x3880))))
 ))
 (let (($x56 (exc_halt_t 0)))
 (let (($x57 (exc_halt_s 0)))
 (let (($x58 (= $x57 $x56)))
 (let (($x5885 (forall ((n (_ BitVec 6)) )(let ((?x4848 (stack_t x_0 x_1 x_2 x_3 0 n)))
 (let ((?x5053 (stack_s x_0 x_1 x_2 x_3 0 n)))
 (let (($x950 (= ?x5053 ?x4848)))
 (or $x950 (bvsle (sc_t 0) n))))))
 ))
 (let ((?x63 (sc_t 0)))
 (let ((?x72 (sc_s 0)))
 (let (($x73 (= ?x72 ?x63)))
 (let (($x6831 (= $x3614 (or (exc_halt_t 2) (not (bvsle (_ bv0 6) (bvadd (_ bv62 6) (sc_t 2))))))))
 (let (($x4948 (forall ((w (_ BitVec 256)) )(let ((?x1606 (storage_t x_0 x_1 x_2 x_3 2 w)))
 (let ((?x2002 (storage_t x_0 x_1 x_2 x_3 3 w)))
 (= ?x2002 ?x1606))))
 ))
 (let (($x4759 (forall ((n (_ BitVec 6)) )(let ((?x8840 (stack_t x_0 x_1 x_2 x_3 2 n)))
 (let ((?x9142 (stack_t x_0 x_1 x_2 x_3 3 n)))
 (or (= ?x9142 ?x8840) (bvsle (bvadd (_ bv62 6) (sc_t 2)) n)))))
 ))
 (let (($x286 (= (used_gas_t x_0 x_1 x_2 x_3 3) (+ 3 (used_gas_t x_0 x_1 x_2 x_3 2)))))
 (let (($x7920 (= (stack_t x_0 x_1 x_2 x_3 3 (bvadd (_ bv62 6) ?x11304)) (stack_t x_0 x_1 x_2 x_3 2 (bvadd (_ bv63 6) (sc_t 2))))))
 (let (($x8815 (= (stack_t x_0 x_1 x_2 x_3 3 (bvadd (_ bv63 6) ?x11304)) (stack_t x_0 x_1 x_2 x_3 2 (bvadd (_ bv62 6) (sc_t 2))))))
 (let (($x4500 (exc_halt_t 2)))
 (let (($x9150 (= $x4500 (or (exc_halt_t 1) (not (bvsle (_ bv0 6) (bvadd (_ bv63 6) (sc_t 1))))))))
 (let (($x4607 (forall ((w (_ BitVec 256)) )(let ((?x2925 (storage_t x_0 x_1 x_2 x_3 1 w)))
 (let ((?x1606 (storage_t x_0 x_1 x_2 x_3 2 w)))
 (= ?x1606 ?x2925))))
 ))
 (let (($x9609 (forall ((n (_ BitVec 6)) )(let ((?x3518 (stack_t x_0 x_1 x_2 x_3 1 n)))
 (let ((?x8840 (stack_t x_0 x_1 x_2 x_3 2 n)))
 (or (bvsle (bvadd (_ bv63 6) (sc_t 1)) n) (= ?x8840 ?x3518)))))
 ))
 (let ((?x3875 (used_gas_t x_0 x_1 x_2 x_3 2)))
 (let (($x8556 (forall ((w (_ BitVec 256)) )(let ((?x3880 (storage_t x_0 x_1 x_2 x_3 0 w)))
 (let ((?x2925 (storage_t x_0 x_1 x_2 x_3 1 w)))
 (= ?x2925 ?x3880))))
 ))
 (let (($x10040 (forall ((n (_ BitVec 6)) )(let ((?x4848 (stack_t x_0 x_1 x_2 x_3 0 n)))
 (let ((?x3518 (stack_t x_0 x_1 x_2 x_3 1 n)))
 (or (bvsle (bvadd (_ bv62 6) (sc_t 0)) n) (= ?x3518 ?x4848)))))
 ))
 (let ((?x10899 (bvmul (stack_t x_0 x_1 x_2 x_3 0 (bvadd (_ bv62 6) ?x63)) (stack_t x_0 x_1 x_2 x_3 0 (bvadd (_ bv63 6) ?x63)))))
 (let (($x544 (= (stack_t x_0 x_1 x_2 x_3 1 (bvadd (_ bv63 6) (sc_t 1))) ?x10899)))
 (let (($x8463 (= $x11317 (or (exc_halt_s 4) (not (bvsle (_ bv0 6) (bvadd (_ bv63 6) (sc_s 4))))))))
 (let (($x2273 (forall ((w (_ BitVec 256)) )(let ((?x1825 (storage_s x_0 x_1 x_2 x_3 4 w)))
 (let ((?x11072 (storage_s x_0 x_1 x_2 x_3 5 w)))
 (= ?x11072 ?x1825))))
 ))
 (let (($x10506 (forall ((n (_ BitVec 6)) )(let ((?x8509 (stack_s x_0 x_1 x_2 x_3 4 n)))
 (let ((?x6221 (stack_s x_0 x_1 x_2 x_3 5 n)))
 (or (= ?x6221 ?x8509) (bvsle (bvadd (_ bv63 6) (sc_s 4)) n)))))
 ))
 (let (($x7519 (= (used_gas_s x_0 x_1 x_2 x_3 5) (+ 2 (used_gas_s x_0 x_1 x_2 x_3 4)))))
 (let (($x7172 (exc_halt_s 4)))
 (let (($x2634 (= $x7172 (or (exc_halt_s 3) (not (bvsle (_ bv0 6) (bvadd (_ bv62 6) (sc_s 3))))))))
 (let (($x8902 (forall ((w (_ BitVec 256)) )(let ((?x5171 (storage_s x_0 x_1 x_2 x_3 3 w)))
 (let ((?x1825 (storage_s x_0 x_1 x_2 x_3 4 w)))
 (= ?x1825 ?x5171))))
 ))
 (let (($x4794 (forall ((n (_ BitVec 6)) )(let ((?x1184 (stack_s x_0 x_1 x_2 x_3 3 n)))
 (let ((?x8509 (stack_s x_0 x_1 x_2 x_3 4 n)))
 (or (= ?x8509 ?x1184) (bvsle (bvadd (_ bv62 6) (sc_s 3)) n)))))
 ))
 (let ((?x2584 (used_gas_s x_0 x_1 x_2 x_3 4)))
 (let ((?x2145 (stack_s x_0 x_1 x_2 x_3 3 (bvadd (_ bv63 6) (sc_s 3)))))
 (let (($x1136 (= (stack_s x_0 x_1 x_2 x_3 4 (bvadd (_ bv62 6) (sc_s 4))) ?x2145)))
 (let ((?x275 (sc_s 3)))
 (let ((?x9733 (bvadd (_ bv62 6) ?x275)))
 (let ((?x605 (stack_s x_0 x_1 x_2 x_3 3 ?x9733)))
 (let (($x6317 (= (stack_s x_0 x_1 x_2 x_3 4 (bvadd (_ bv63 6) (sc_s 4))) ?x605)))
 (let (($x292 (exc_halt_s 3)))
 (let (($x9635 (= $x292 (or (exc_halt_s 2) (not (bvsle (_ bv0 6) (bvadd (_ bv61 6) (sc_s 2))))))))
 (let (($x4059 (forall ((w (_ BitVec 256)) )(let ((?x4446 (storage_s x_0 x_1 x_2 x_3 2 w)))
 (let ((?x5171 (storage_s x_0 x_1 x_2 x_3 3 w)))
 (= ?x5171 ?x4446))))
 ))
 (let (($x1889 (forall ((n (_ BitVec 6)) )(let ((?x11350 (stack_s x_0 x_1 x_2 x_3 2 n)))
 (let ((?x1184 (stack_s x_0 x_1 x_2 x_3 3 n)))
 (or (= ?x1184 ?x11350) (bvsle (bvadd (_ bv61 6) (sc_s 2)) n)))))
 ))
 (let ((?x2069 (used_gas_s x_0 x_1 x_2 x_3 3)))
 (let ((?x9248 (stack_s x_0 x_1 x_2 x_3 2 (bvadd (_ bv62 6) (sc_s 2)))))
 (let ((?x1962 (stack_s x_0 x_1 x_2 x_3 2 (bvadd (_ bv63 6) (sc_s 2)))))
 (let (($x8503 (= ?x2145 (stack_s x_0 x_1 x_2 x_3 2 (bvadd (_ bv61 6) (sc_s 2))))))
 (let (($x247 (exc_halt_s 2)))
 (let (($x6209 (= $x247 (or (exc_halt_s 1) (not (bvsle (_ bv0 6) (bvadd (_ bv62 6) (sc_s 1))))))))
 (let (($x1445 (forall ((w (_ BitVec 256)) )(let ((?x2325 (storage_s x_0 x_1 x_2 x_3 1 w)))
 (let ((?x4446 (storage_s x_0 x_1 x_2 x_3 2 w)))
 (= ?x4446 ?x2325))))
 ))
 (let (($x9555 (forall ((n (_ BitVec 6)) )(let ((?x8398 (stack_s x_0 x_1 x_2 x_3 1 n)))
 (let ((?x11350 (stack_s x_0 x_1 x_2 x_3 2 n)))
 (or (bvsle (bvadd (_ bv62 6) (sc_s 1)) n) (= ?x11350 ?x8398)))))
 ))
 (let ((?x10562 (used_gas_s x_0 x_1 x_2 x_3 2)))
 (let ((?x3506 (stack_s x_0 x_1 x_2 x_3 1 (bvadd (_ bv63 6) (sc_s 1)))))
 (let (($x8523 (= ?x1962 (stack_s x_0 x_1 x_2 x_3 1 (bvadd (_ bv62 6) (sc_s 1))))))
 (let (($x7644 (forall ((w (_ BitVec 256)) )(let ((?x5871 (storage_s x_0 x_1 x_2 x_3 0 w)))
 (let ((?x2325 (storage_s x_0 x_1 x_2 x_3 1 w)))
 (= ?x2325 ?x5871))))
 ))
 (let (($x10370 (forall ((n (_ BitVec 6)) )(let ((?x5053 (stack_s x_0 x_1 x_2 x_3 0 n)))
 (let ((?x8398 (stack_s x_0 x_1 x_2 x_3 1 n)))
 (or (bvsle (bvadd (_ bv62 6) (sc_s 0)) n) (= ?x8398 ?x5053)))))
 ))
 (let ((?x10709 (bvadd (stack_s x_0 x_1 x_2 x_3 0 (bvadd (_ bv63 6) ?x72)) (stack_s x_0 x_1 x_2 x_3 0 (bvadd (_ bv62 6) ?x72)))))
 (let (($x8802 (forall ((w (_ BitVec 256)) )(let ((?x5871 (storage_s x_0 x_1 x_2 x_3 0 w)))
 (= ?x5871 (_ bv0 256))))
 ))
 (let (($x4272 (= ?x1929 0)))
 (let (($x1389 (= (stack_s x_0 x_1 x_2 x_3 0 (_ bv3 6)) x_3)))
 (let (($x10340 (= (stack_s x_0 x_1 x_2 x_3 0 (_ bv2 6)) x_2)))
 (let (($x6298 (= (stack_s x_0 x_1 x_2 x_3 0 (_ bv1 6)) x_1)))
 (let (($x4067 (= (stack_s x_0 x_1 x_2 x_3 0 (_ bv0 6)) x_0)))
 (let (($x11199 (= ?x72 (_ bv4 6))))
 (and $x11199 $x4067 $x6298 $x10340 $x1389 (not $x57) $x4272 $x8802 (= ?x3506 ?x10709) (= (used_gas_s x_0 x_1 x_2 x_3 1) (+ 3 ?x1929)) (= (sc_s 1) (bvadd (_ bv63 6) ?x72)) $x10370 $x7644 (= (exc_halt_s 1) (or $x57 (not (bvsle (_ bv0 6) (bvadd (_ bv62 6) ?x72))))) $x8523 (= ?x9248 ?x3506) (= ?x10562 (+ 3 (used_gas_s x_0 x_1 x_2 x_3 1))) (= (sc_s 2) (sc_s 1)) $x9555 $x1445 $x6209 $x8503 (= (stack_s x_0 x_1 x_2 x_3 3 (bvadd (_ bv61 6) ?x275)) ?x1962) (= ?x605 ?x9248) (= ?x2069 (+ 3 ?x10562)) (= ?x275 (sc_s 2)) $x1889 $x4059 $x9635 $x6317 $x1136 (= ?x2584 (+ 3 ?x2069)) (= (sc_s 4) ?x275) $x4794 $x8902 $x2634 $x7519 (= ?x4319 (bvadd (_ bv63 6) (sc_s 4))) $x10506 $x2273 $x8463 $x544 (= (used_gas_t x_0 x_1 x_2 x_3 1) (+ 5 ?x8331)) (= (sc_t 1) (bvadd (_ bv63 6) ?x63)) $x10040 $x8556 (= (exc_halt_t 1) (or $x56 (not (bvsle (_ bv0 6) (bvadd (_ bv62 6) ?x63))))) (= ?x3875 (+ 2 (used_gas_t x_0 x_1 x_2 x_3 1))) (= (sc_t 2) (bvadd (_ bv63 6) (sc_t 1))) $x9609 $x4607 $x9150 $x8815 $x7920 $x286 (= ?x11304 (sc_t 2)) $x4759 $x4948 $x6831 $x73 $x5885 $x58 $x9422 $x3395 (not (and $x1839 $x6363 $x3494 $x10167))))))))))))))))))))))))))))))))))))))))))))))))))))))))))))))))))))))))))))))
 )
(check-sat)
(get-proof)
